NAME          
ROWS
 N  OBJ
 L  c1
 L  c2
 L  c3
COLUMNS
    MARKER    'MARKER'                 'INTORG'
    x[1]      c1        786
    x[1]      c2        421
    x[1]      c3        712
    x[1]      OBJ       -305
    x[2]      c1        630
    x[2]      c2        428
    x[2]      c3        198
    x[2]      OBJ       -230
    x[3]      c1        471
    x[3]      c2        458
    x[3]      c3        872
    x[3]      OBJ       -579
    x[4]      c1        32
    x[4]      c2        591
    x[4]      c3        203
    x[4]      OBJ       -77
    x[5]      c1        263
    x[5]      c2        236
    x[5]      c3        950
    x[5]      OBJ       -542
    x[6]      c1        870
    x[6]      c2        464
    x[6]      c3        77
    x[6]      OBJ       -31
    x[7]      c1        936
    x[7]      c2        978
    x[7]      c3        240
    x[7]      OBJ       -22
    x[8]      c1        894
    x[8]      c2        37
    x[8]      c3        99
    x[8]      OBJ       -113
    x[9]      c1        261
    x[9]      c2        565
    x[9]      c3        803
    x[9]      OBJ       -42
    x[10]     c1        827
    x[10]     c2        706
    x[10]     c3        7
    x[10]     OBJ       -77
    x[11]     c1        824
    x[11]     c2        843
    x[11]     c3        237
    x[11]     OBJ       -507
    x[12]     c1        730
    x[12]     c2        420
    x[12]     c3        491
    x[12]     OBJ       -784
    x[13]     c1        208
    x[13]     c2        962
    x[13]     c3        695
    x[13]     OBJ       -801
    x[14]     c1        961
    x[14]     c2        422
    x[14]     c3        480
    x[14]     OBJ       -975
    x[15]     c1        650
    x[15]     c2        375
    x[15]     c3        676
    x[15]     OBJ       -435
    x[16]     c1        144
    x[16]     c2        171
    x[16]     c3        673
    x[16]     OBJ       -788
    x[17]     c1        589
    x[17]     c2        461
    x[17]     c3        850
    x[17]     OBJ       -75
    x[18]     c1        941
    x[18]     c2        875
    x[18]     c3        835
    x[18]     OBJ       -585
    x[19]     c1        138
    x[19]     c2        665
    x[19]     c3        92
    x[19]     OBJ       -10
    x[20]     c1        302
    x[20]     c2        471
    x[20]     c3        146
    x[20]     OBJ       -799
    x[21]     c1        355
    x[21]     c2        641
    x[21]     c3        873
    x[21]     OBJ       -796
    x[22]     c1        349
    x[22]     c2        994
    x[22]     c3        838
    x[22]     OBJ       -575
    x[23]     c1        728
    x[23]     c2        752
    x[23]     c3        291
    x[23]     OBJ       -379
    x[24]     c1        732
    x[24]     c2        579
    x[24]     c3        100
    x[24]     OBJ       -64
    x[25]     c1        343
    x[25]     c2        295
    x[25]     c3        433
    x[25]     OBJ       -185
    x[26]     c1        60
    x[26]     c2        923
    x[26]     c3        427
    x[26]     OBJ       -715
    x[27]     c1        453
    x[27]     c2        757
    x[27]     c3        636
    x[27]     OBJ       -522
    x[28]     c1        866
    x[28]     c2        433
    x[28]     c3        127
    x[28]     OBJ       -195
    x[29]     c1        859
    x[29]     c2        889
    x[29]     c3        376
    x[29]     OBJ       -541
    x[30]     c1        21
    x[30]     c2        592
    x[30]     c3        534
    x[30]     OBJ       -862
    x[31]     c1        781
    x[31]     c2        408
    x[31]     c3        786
    x[31]     OBJ       -304
    x[32]     c1        203
    x[32]     c2        12
    x[32]     c3        374
    x[32]     OBJ       -302
    x[33]     c1        439
    x[33]     c2        96
    x[33]     c3        118
    x[33]     OBJ       -361
    x[34]     c1        533
    x[34]     c2        680
    x[34]     c3        596
    x[34]     OBJ       -825
    x[35]     c1        832
    x[35]     c2        702
    x[35]     c3        603
    x[35]     OBJ       -246
RHS
    rhs       c1        9506
    rhs       c2        9651
    rhs       c3        8224
RANGES
BOUNDS
 BV bounds    x[1]
 BV bounds    x[2]
 BV bounds    x[3]
 BV bounds    x[4]
 BV bounds    x[5]
 BV bounds    x[6]
 BV bounds    x[7]
 BV bounds    x[8]
 BV bounds    x[9]
 BV bounds    x[10]
 BV bounds    x[11]
 BV bounds    x[12]
 BV bounds    x[13]
 BV bounds    x[14]
 BV bounds    x[15]
 BV bounds    x[16]
 BV bounds    x[17]
 BV bounds    x[18]
 BV bounds    x[19]
 BV bounds    x[20]
 BV bounds    x[21]
 BV bounds    x[22]
 BV bounds    x[23]
 BV bounds    x[24]
 BV bounds    x[25]
 BV bounds    x[26]
 BV bounds    x[27]
 BV bounds    x[28]
 BV bounds    x[29]
 BV bounds    x[30]
 BV bounds    x[31]
 BV bounds    x[32]
 BV bounds    x[33]
 BV bounds    x[34]
 BV bounds    x[35]
ENDATA
